#######################



#######################
Set parameter TimeLimit to value 300
Set parameter SoftMemLimit to value 125
Set parameter MIPFocus to value 2
Set parameter LogFile to value 1202-MIPFocus2-Presolve1-TimeLimit300-k16x240-0.log
Set parameter Presolve to value 1
Using license file /opt/gurobi/gurobi.lic

Gurobi Optimizer version 12.0.2 build v12.0.2rc0 (linux64 - "Ubuntu 22.04.4 LTS")
Copyright (c) 2025, Gurobi Optimization, LLC

Read MPS format model from file /miplib2010/k16x240.mps.bz2
Reading time = 0.00 seconds
k16x240: 256 rows, 480 columns, 960 nonzeros

Using Gurobi shared library /nfs/shared/static-builds/gurobi1202

CPU model: Intel(R) Xeon(R) E-2388G CPU @ 3.20GHz, instruction set [SSE2|AVX|AVX2|AVX512]
Thread count: 8 physical cores, 16 logical processors, using up to 16 threads

Non-default parameters:
TimeLimit  300
SoftMemLimit  125
MIPFocus  2
Presolve  1

Optimize a model with 256 rows, 480 columns and 960 nonzeros
Model fingerprint: 0x4e80885f
Variable types: 240 continuous, 240 integer (240 binary)
Coefficient statistics:
  Matrix range     [1e+00, 1e+03]
  Objective range  [1e+00, 1e+03]
  Bounds range     [1e+00, 1e+03]
  RHS range        [4e+00, 4e+02]
Found heuristic solution: objective 23615.000000
Presolve time: 0.00s
Presolved: 256 rows, 480 columns, 960 nonzeros
Variable types: 240 continuous, 240 integer (240 binary)

Root relaxation: objective 2.769838e+03, 51 iterations, 0.00 seconds (0.00 work units)

    Nodes    |    Current Node    |     Objective Bounds      |     Work
 Expl Unexpl |  Obj  Depth IntInf | Incumbent    BestBd   Gap | It/Node Time

     0     0 2769.83800    0   14 23615.0000 2769.83800  88.3%     -    0s
H    0     0                    11359.000000 2769.83800  75.6%     -    0s
H    0     0                    11195.000000 2769.83800  75.3%     -    0s
H    0     0                    11088.000000 2769.83800  75.0%     -    0s
H    0     0                    11074.000000 2769.83800  75.0%     -    0s
     0     0 8116.87580    0   26 11074.0000 8116.87580  26.7%     -    0s
H    0     0                    10916.000000 8161.01413  25.2%     -    0s
     0     0 8588.30479    0   25 10916.0000 8588.30479  21.3%     -    0s
H    0     0                    10896.000000 8613.92228  20.9%     -    0s
H    0     0                    10806.000000 8613.92228  20.3%     -    0s
     0     0 8613.92228    0   22 10806.0000 8613.92228  20.3%     -    0s
H    0     0                    10748.000000 8720.59081  18.9%     -    0s
     0     0 8720.59081    0   23 10748.0000 8720.59081  18.9%     -    0s
     0     0 8841.67029    0   27 10748.0000 8841.67029  17.7%     -    0s
     0     0 8854.70970    0   41 10748.0000 8854.70970  17.6%     -    0s
     0     0 8856.63912    0   42 10748.0000 8856.63912  17.6%     -    0s
     0     0 9013.88780    0   46 10748.0000 9013.88780  16.1%     -    0s
     0     0 9072.53099    0   37 10748.0000 9072.53099  15.6%     -    0s
     0     0 9078.41011    0   41 10748.0000 9078.41011  15.5%     -    0s
     0     0 9103.48542    0   29 10748.0000 9103.48542  15.3%     -    0s
     0     0 9109.23018    0   35 10748.0000 9109.23018  15.2%     -    0s
     0     0 9130.16239    0   25 10748.0000 9130.16239  15.1%     -    0s
     0     0 9130.74525    0   30 10748.0000 9130.74525  15.0%     -    0s
     0     0 9141.86442    0   33 10748.0000 9141.86442  14.9%     -    0s
     0     0 9142.43027    0   33 10748.0000 9142.43027  14.9%     -    0s
     0     2 9146.91955    0   33 10748.0000 9146.91955  14.9%     -    0s
H   32    62                    10681.000000 9205.23982  13.8%  52.1    0s
H  218   220                    10674.000000 9205.23982  13.8%  35.6    0s
 35646 12432 10166.3979   29   21 10674.0000 10029.3299  6.04%  24.4    5s
 80666 16650     cutoff   29      10674.0000 10247.1140  4.00%  25.9   10s
 126614  8766     cutoff   32      10674.0000 10441.7357  2.18%  25.3   15s

Cutting planes:
  Gomory: 2
  Lift-and-project: 15
  Cover: 79
  Implied bound: 39
  Dual implied bound: 16
  MIR: 171
  Flow cover: 273
  Flow path: 38
  Inf proof: 3
  Zero half: 10
  Network: 50
  Relax-and-lift: 3

Explored 142503 nodes (3465303 simplex iterations) in 16.16 seconds (22.09 work units)
Thread count was 16 (of 16 available processors)

Solution count 10: 10674 10681 10748 ... 11359

Optimal solution found (tolerance 1.00e-04)
Best objective 1.067400000000e+04, best bound 1.067400000000e+04, gap 0.0000%
